(set-logic QF_FPBV)
(set-option :produce-models true)
(set-info :source |Random FP created by PyMPF|)
(set-info :category random)
(set-info :status sat)
;; fp.from.ubv(BitVec 8)
(declare-const x (_ BitVec 8))
(assert (bvule x #b00011000))
;; x should be 24
(declare-const r Float32)
(assert (= r ((_ to_fp_unsigned 8 24) RTN x)))
(assert (fp.leq r (fp #b0 #b10000011 #b10000000000000000000000)))
(check-sat)
(exit)
